p cnf 80 272
-1 2 -3 0
1 -2 -3 0
-1 -2 3 0
1 2 3 0
-4 -3 0
-4 -3 0
3 4 0
2 -5 -6 0
-2 5 -6 0
2 5 6 0
-2 -5 6 0
7 -2 -8 0
-7 2 -8 0
7 2 8 0
-7 -2 8 0
2 8 -9 0
-2 -8 -9 0
2 -8 9 0
-2 8 9 0
-11 -9 0
-11 -10 0
9 10 11 0
13 -12 0
13 -5 0
12 5 -13 0
14 11 0
14 -13 0
-11 13 -14 0
15 -6 0
15 14 0
6 -14 -15 0
16 -4 0
16 -15 0
4 15 -16 0
-19 17 0
-19 18 0
-17 -18 19 0
-20 7 0
-20 19 0
-7 -19 20 0
5 -10 -21 0
-5 10 -21 0
5 10 21 0
-5 -10 21 0
22 -20 0
22 -21 0
20 21 -22 0
-24 -23 0
-24 -2 0
23 2 24 0
25 -6 0
25 24 0
6 -24 -25 0
28 26 0
28 -27 0
-26 27 -28 0
29 -25 0
29 28 0
25 -28 -29 0
-31 -11 0
-31 30 0
11 -30 31 0
32 31 0
32 -18 0
-31 18 -32 0
-33 -29 0
-33 32 0
29 -32 33 0
-23 13 -35 0
23 -13 -35 0
-23 -13 35 0
23 13 35 0
-36 34 0
-36 35 0
-34 -35 36 0
-33 -36 -37 0
33 36 -37 0
-33 36 37 0
33 -36 37 0
-38 13 -39 0
38 -13 -39 0
-38 -13 39 0
38 13 39 0
39 12 -40 0
-39 -12 -40 0
39 -12 40 0
-39 12 40 0
41 38 0
41 8 0
-38 -8 -41 0
-30 7 -42 0
30 -7 -42 0
-30 -7 42 0
30 7 42 0
43 2 0
43 -42 0
-2 42 -43 0
-44 12 0
-44 -17 0
-12 17 44 0
-9 44 -45 0
9 -44 -45 0
-9 -44 45 0
9 44 45 0
43 -45 -46 0
-43 45 -46 0
43 45 46 0
-43 -45 46 0
47 -46 0
47 17 0
46 -17 -47 0
-41 47 -48 0
41 -47 -48 0
-41 -47 48 0
41 47 48 0
-40 -48 -49 0
40 48 -49 0
-40 48 49 0
40 -48 49 0
50 37 0
50 -49 0
-37 49 -50 0
-51 -27 0
-51 -2 0
27 2 51 0
-10 51 -52 0
10 -51 -52 0
-10 -51 52 0
10 51 52 0
6 52 -53 0
-6 -52 -53 0
6 -52 53 0
-6 52 53 0
54 53 0
54 27 0
-53 -27 -54 0
-1 -8 -55 0
1 8 -55 0
-1 8 55 0
1 -8 55 0
-56 12 0
-56 55 0
-12 -55 56 0
-18 -56 -57 0
18 56 -57 0
-18 56 57 0
18 -56 57 0
-57 44 -58 0
57 -44 -58 0
-57 -44 58 0
57 44 58 0
-11 -30 -59 0
11 30 -59 0
-11 30 59 0
11 -30 59 0
-60 58 0
-60 59 0
-58 -59 60 0
61 2 0
61 -30 0
-2 30 -61 0
-60 -61 -62 0
60 61 -62 0
-60 61 62 0
60 -61 62 0
63 -54 0
63 -62 0
54 62 -63 0
-64 -18 0
-64 18 0
65 63 0
65 -64 0
-63 64 -65 0
-50 65 -66 0
50 -65 -66 0
-50 -65 66 0
50 65 66 0
-67 -22 0
-67 -66 0
22 66 67 0
-16 67 -68 0
16 -67 -68 0
-16 -67 68 0
16 67 68 0
-69 35 0
-69 19 0
-35 -19 69 0
68 -69 -70 0
-68 69 -70 0
68 69 70 0
-68 -69 70 0
71 -57 0
71 -10 0
57 10 -71 0
-23 -1 -72 0
23 1 -72 0
-23 1 72 0
23 -1 72 0
39 13 -73 0
-39 -13 -73 0
39 -13 73 0
-39 13 73 0
74 72 0
74 73 0
-72 -73 -74 0
-71 74 -75 0
71 -74 -75 0
-71 -74 75 0
71 74 75 0
76 -46 0
76 -58 0
46 58 -76 0
-52 6 -77 0
52 -6 -77 0
-52 -6 77 0
52 6 77 0
-76 77 -78 0
76 -77 -78 0
-76 -77 78 0
76 77 78 0
79 -75 0
79 78 0
75 -78 -79 0
80 70 0
80 -79 0
-70 79 -80 0
-64 25 28 0
-18 -66 28 73 23 13 0
38 20 0
70 59 -16 33 0
32 6 -79 28 0
-35 -3 0
5 -35 -18 25 44 0
-58 50 -7 0
35 -34 56 -61 0
-57 32 11 14 -19 0
-60 77 -47 0
5 15 28 -54 -22 0
55 -9 -43 -45 0
2 50 40 0
35 74 75 -27 21 -77 0
45 -44 -57 -50 38 0
70 -66 0
-67 19 -54 29 15 -53 0
76 17 50 64 0
31 -10 -56 -80 0
-42 -58 41 -48 8 0
74 -79 37 -63 0
-13 36 57 0
48 -66 27 0
-47 -50 3 0
-27 31 -70 -22 -17 0
-17 -51 -66 28 -37 -49 0
-42 3 -43 0
71 -56 -77 0
2 31 72 44 0
-52 59 0
-22 51 0
-32 -48 78 15 59 0
51 -78 35 -12 28 44 0
-70 -39 0
78 74 -28 20 -72 0
44 -26 0
-27 -11 57 -37 -68 -41 0
8 65 -70 17 18 0
4 36 19 37 72 0
67 -34 51 0
-32 61 -59 74 76 0
49 -54 42 0
-5 14 -4 -47 27 0
-4 6 0
80 0
